Version identifier: 20.1.0.0 | 2020-11-10 | 9bedb6d68
Tried aggregator 2 times.
MIP Presolve eliminated 1222 rows and 609 columns.
MIP Presolve modified 3168 coefficients.
Aggregator did 141 substitutions.
Reduced MIP has 1846 rows, 1465 columns, and 6058 nonzeros.
Reduced MIP has 303 binaries, 1162 generals, 0 SOSs, and 0 indicators.
Presolve time = 0.02 sec. (7.43 ticks)
Found incumbent of value 2312.000000 after 0.04 sec. (14.75 ticks)
Probing fixed 40 vars, tightened 438 bounds.
Probing time = 0.00 sec. (1.20 ticks)
Tried aggregator 2 times.
Detecting symmetries...
MIP Presolve eliminated 780 rows and 76 columns.
MIP Presolve modified 185 coefficients.
Aggregator did 24 substitutions.
Reduced MIP has 1042 rows, 1365 columns, and 3406 nonzeros.
Reduced MIP has 457 binaries, 908 generals, 0 SOSs, and 0 indicators.
Presolve time = 0.01 sec. (4.96 ticks)
Probing time = 0.00 sec. (0.29 ticks)
Clique table members: 45.
MIP emphasis: balance optimality and feasibility.
MIP search method: dynamic search.
Parallel mode: deterministic, using up to 24 threads.
Root relaxation solution time = 0.01 sec. (2.61 ticks)

        Nodes                                         Cuts/
   Node  Left     Objective  IInf  Best Integer    Best Bound    ItCnt     Gap

*     0+    0                         2312.0000        0.0000           100.00%
      0     0        0.0000    46     2312.0000        0.0000      310  100.00%
*     0+    0                           17.0000        0.0000           100.00%
      0     0        0.0000    77       17.0000     Cuts: 133      436  100.00%
      0     0        0.0000    78       17.0000      Cuts: 89      587  100.00%
*     0+    0                           13.0000        0.0000           100.00%
*     0+    0                           10.0000        0.0000           100.00%
      0     0        cutoff             10.0000       10.0000      587    0.00%
Elapsed time = 0.65 sec. (115.89 ticks, tree = 0.01 MB, solutions = 4)

Implied bound cuts applied:  41
Flow cuts applied:  3
Mixed integer rounding cuts applied:  5
Zero-half cuts applied:  39
Lift and project cuts applied:  11
Gomory fractional cuts applied:  19

Root node processing (before b&c):
  Real time             =    0.65 sec. (116.02 ticks)
Parallel b&c, 24 threads:
  Real time             =    0.00 sec. (0.00 ticks)
  Sync time (average)   =    0.00 sec.
  Wait time (average)   =    0.00 sec.
                          ------------
Total (root+branch&cut) =    0.65 sec. (116.02 ticks)

Solution status = Optimal
Solution LB = 10
Solution UB = 10
Runtime = 0.652414 seconds
	Command being timed: "/home/min/git_repos/CS598MEBProject/CNT-ILP/build/cnt -s 2 ./output/k8_n20/simC_c1_k8_n20_u1_s1_del02.input-left.cnp"
	User time (seconds): 9.25
	System time (seconds): 0.10
	Percent of CPU this job got: 1340%
	Elapsed (wall clock) time (h:mm:ss or m:ss): 0:00.69
	Average shared text size (kbytes): 0
	Average unshared data size (kbytes): 0
	Average stack size (kbytes): 0
	Average total size (kbytes): 0
	Maximum resident set size (kbytes): 105236
	Average resident set size (kbytes): 0
	Major (requiring I/O) page faults: 0
	Minor (reclaiming a frame) page faults: 23392
	Voluntary context switches: 5235
	Involuntary context switches: 1819
	Swaps: 0
	File system inputs: 0
	File system outputs: 24
	Socket messages sent: 0
	Socket messages received: 0
	Signals delivered: 0
	Page size (bytes): 4096
	Exit status: 0
